root_relax = 979.0
QCR_time = 14.4897
opt = true
obj_val = 979.0
solved_time = 0.056
explored_nodes = 1451
 to value "./res/Gurobi/QCR_QP/bcc81911.txt"
Set parameter Presolve to value 0
Set parameter AggFill to value -1
Set parameter Aggregate to value 0
Set parameter Heuristics to value 0
Set parameter LPWarmStart to value 0
Set parameter NLPHeur to value 0
Set parameter NoRelHeurTime to value 0
Set parameter PreCrush to value 0
Set parameter PreDepRow to value 0
Set parameter PreDual to value 0
Set parameter PrePasses to value -1
Set parameter RINS to value 0
Set parameter Symmetry to value 0
Set parameter PreQLinearize to value 0
Set parameter NonConvex to value 0

Gurobi 12.0.0 (linux64) logging started Thu Aug 14 19:46:48 2025

Set parameter LogFile to value "./res/Gurobi/QCR_QP/bcc81911.txt"
Set parameter PreCrush to value 0
Set parameter PrePasses to value -1
Set parameter AggFill to value -1
Set parameter NoRelHeurTime to value 0
Set parameter NLPHeur to value 0
Set parameter NonConvex to value 0
Set parameter LPWarmStart to value 0
Set parameter PreDepRow to value 0
Set parameter Symmetry to value 0
Set parameter Presolve to value 0
Gurobi Optimizer version 12.0.0 build v12.0.0rc1 (linux64 - "Debian GNU/Linux 12 (bookworm)")

CPU model: Intel(R) Xeon(R) CPU E5-2650 v3 @ 2.30GHz, instruction set [SSE2|AVX|AVX2]
Thread count: 20 physical cores, 40 logical processors, using up to 20 threads

Non-default parameters:
TimeLimit  1800
LPWarmStart  0
Heuristics  0
RINS  0
NLPHeur  0
Symmetry  0
Aggregate  0
PreDual  0
NonConvex  0
PreDepRow  0
PreQLinearize  0
Presolve  0

Optimize a model with 0 rows, 63 columns and 0 nonzeros
Model fingerprint: 0x3a5e1e3d
Model has 1972 quadratic objective terms
Variable types: 0 continuous, 63 integer (63 binary)
Coefficient statistics:
  Matrix range     [0e+00, 0e+00]
  Objective range  [4e+01, 6e+01]
  QObjective range [2e+00, 4e+01]
  Bounds range     [0e+00, 0e+00]
  RHS range        [0e+00, 0e+00]
Variable types: 0 continuous, 63 integer (63 binary)

Root relaxation: objective -9.790002e+02, 94 iterations, 0.00 seconds (0.00 work units)

    Nodes    |    Current Node    |     Objective Bounds      |     Work
 Expl Unexpl |  Obj  Depth IntInf | Incumbent    BestBd   Gap | It/Node Time

     0     0 -979.00016    0   63          - -979.00016      -     -    0s
     0     0 -979.00009    0   63          - -979.00009      -     -    0s
     0     2 -979.00009    0   63          - -979.00009      -     -    0s
*  304  1388              44    -979.0000000 -979.00009  0.00%   2.0    0s

Explored 1451 nodes (3006 simplex iterations) in 0.05 seconds (0.02 work units)
Thread count was 20 (of 40 available processors)

Solution count 1: -979 

Optimal solution found (tolerance 1.00e-04)
Best objective -9.790000000000e+02, best bound -9.790000914973e+02, gap 0.0000%

User-callback calls 2982, time in user-callback 0.00 sec
